
Gurobi 13.0.1 (linux64) logging started Thu Mar 26 09:05:57 2026

Set parameter LogFile to value "logs_sparse/75B_3F_robust_gamma_0d15_theta_0d05199999999999999_2026-03-26_09h05m42s.log"
Set parameter MIPGap to value 0.005
Set parameter OptimalityTol to value 0.005
Gurobi Optimizer version 13.0.1 build v13.0.1rc0 (linux64 - "Linux Mint 22")

CPU model: 12th Gen Intel(R) Core(TM) i7-12700, instruction set [SSE2|AVX|AVX2]
Thread count: 20 physical cores, 20 logical processors, using up to 20 threads

Non-default parameters:
TimeLimit  3600
SoftMemLimit  12
MIPGap  0.005
OptimalityTol  0.005

Optimize a model with 45596 rows, 867096 columns and 2644377 nonzeros (Max)
Model fingerprint: 0x24bfab3f
Model has 832586 linear objective coefficients
Variable types: 12096 continuous, 855000 integer (855000 binary)
Coefficient statistics:
  Matrix range     [3e-05, 1e+05]
  Objective range  [1e+00, 3e+03]
  Bounds range     [1e+00, 1e+05]
  RHS range        [1e-02, 1e+05]

Presolve removed 23361 rows and 626499 columns
Presolve time: 1.51s
Presolved: 22235 rows, 240597 columns, 754072 nonzeros
Variable types: 5898 continuous, 234699 integer (234699 binary)
Found heuristic solution: objective -4.08898e+08
Deterministic concurrent LP optimizer: primal simplex, dual simplex, and barrier
Showing barrier log only...

Root barrier log...

Ordering time: 0.49s

Barrier statistics:
 AA' NZ     : 3.860e+05
 Factor NZ  : 3.362e+06 (roughly 130 MB of memory)
 Factor Ops : 9.985e+08 (less than 1 second per iteration)
 Threads    : 18

                  Objective                Residual
Iter       Primal          Dual         Primal    Dual     Compl     Time
   0  -1.89223170e+12  1.19778193e+09  5.49e+07 1.02e+03  2.30e+07     3s
   1  -2.01434451e+11  2.69823472e+09  5.85e+06 1.56e+03  2.50e+06     3s
   2  -3.08106991e+09  2.07125440e+09  9.53e+04 3.76e+01  4.46e+04     3s
   3   9.80605032e+07  1.28832203e+09  3.84e+03 5.98e+00  3.72e+03     3s
   4   2.40583555e+08  7.95699660e+08  1.30e+03 2.05e+00  1.48e+03     3s
   5   2.76764876e+08  6.35948137e+08  6.09e+02 1.26e+00  8.79e+02     3s
   6   2.94127683e+08  4.15728766e+08  2.92e+02 3.57e-01  3.07e+02     3s
   7   3.03721501e+08  3.65925186e+08  1.29e+02 1.85e-01  1.52e+02     3s
   8   3.07270307e+08  3.42719261e+08  6.70e+01 1.03e-01  8.52e+01     3s
   9   3.09561747e+08  3.20721504e+08  2.92e+01 2.72e-02  2.82e+01     3s
  10   3.10778496e+08  3.14787195e+08  9.15e+00 8.12e-03  9.63e+00     3s
  11   3.11084140e+08  3.12944139e+08  4.25e+00 3.26e-03  4.23e+00     3s
  12   3.11149816e+08  3.12738188e+08  3.30e+00 2.80e-03  3.54e+00     3s
  13   3.11368780e+08  3.12095133e+08  3.59e-01 1.36e-03  1.49e+00     3s
  14   3.11391661e+08  3.11866562e+08  2.41e-01 8.53e-04  9.71e-01     3s
  15   3.11435236e+08  3.11693548e+08  1.15e-01 4.57e-04  5.26e-01     4s
  16   3.11463887e+08  3.11615389e+08  5.79e-02 2.69e-04  3.08e-01     4s
  17   3.11487742e+08  3.11555359e+08  1.55e-02 1.27e-04  1.38e-01     4s
  18   3.11492519e+08  3.11528326e+08  8.52e-03 6.46e-05  7.28e-02     4s
  19   3.11495782e+08  3.11518829e+08  4.47e-03 4.29e-05  4.69e-02     4s
  20   3.11497549e+08  3.11510412e+08  2.26e-03 2.37e-05  2.62e-02     4s
  21   3.11498383e+08  3.11506212e+08  1.30e-03 1.41e-05  1.59e-02     4s
  22   3.11498721e+08  3.11504085e+08  9.54e-04 9.38e-06  1.09e-02     4s
  23   3.11499076e+08  3.11502783e+08  6.04e-04 6.46e-06  7.54e-03     4s
  24   3.11499282e+08  3.11502063e+08  4.25e-04 4.87e-06  5.66e-03     4s
  25   3.11499397e+08  3.11501583e+08  3.16e-04 3.81e-06  4.45e-03     4s
  26   3.11499491e+08  3.11501176e+08  2.31e-04 2.95e-06  3.43e-03     4s
  27   3.11499551e+08  3.11500741e+08  1.83e-04 2.01e-06  2.42e-03     4s
  28   3.11499630e+08  3.11500377e+08  1.15e-04 1.24e-06  1.52e-03     4s
  29   3.11499655e+08  3.11500359e+08  9.49e-05 1.21e-06  1.43e-03     4s
  30   3.11499717e+08  3.11500078e+08  4.38e-05 6.04e-07  7.33e-04     4s
  31   3.11499738e+08  3.11499982e+08  2.81e-05 4.07e-07  4.97e-04     4s
  32   3.11499762e+08  3.11499888e+08  9.88e-06 2.14e-07  2.57e-04     4s
  33   3.11499768e+08  3.11499852e+08  5.63e-06 1.40e-07  1.70e-04     4s
  34   3.11499774e+08  3.11499820e+08  1.99e-06 7.82e-08  9.34e-05     5s
  35   3.11499776e+08  3.11499814e+08  1.47e-06 6.66e-08  7.89e-05     5s
  36   3.11499777e+08  3.11499789e+08  1.08e-06 1.65e-08  2.57e-05     5s
  37   3.11499778e+08  3.11499782e+08  5.64e-07 4.89e-09  9.32e-06     5s
  38   3.11499778e+08  3.11499780e+08  2.45e-07 1.09e-09  2.66e-06     5s
  39   3.11499779e+08  3.11499779e+08  4.17e-09 5.85e-10  8.59e-07     5s
  40   3.11499779e+08  3.11499779e+08  1.74e-09 5.67e-10  8.10e-07     5s

Barrier solved model in 40 iterations and 4.83 seconds (6.88 work units)
Optimal objective 3.11499779e+08


Root crossover log...

       0 PPushes remaining with PInf 0.0000000e+00                 5s

  Push phase complete: Pinf 0.0000000e+00, Dinf 4.9142275e+03      5s


Root simplex log...

Iteration    Objective       Primal Inf.    Dual Inf.      Time
   10391    3.1149978e+08   0.000000e+00   4.914227e+03      5s
   10696    3.1149978e+08   0.000000e+00   0.000000e+00      5s
Crossover time: 0.45 seconds (0.42 work units)
Concurrent spin time: 0.85s (can be avoided by choosing Method=3)

Solved with barrier

Root relaxation: objective 3.114998e+08, 10696 iterations, 4.20 seconds (4.06 work units)

    Nodes    |    Current Node    |     Objective Bounds      |     Work
 Expl Unexpl |  Obj  Depth IntInf | Incumbent    BestBd   Gap | It/Node Time

     0     0 3.1150e+08    0 6961 -4.089e+08 3.1150e+08   176%     -    7s
H    0     0                    1.021023e+08 3.1150e+08   205%     -    7s
H    0     0                    1.540907e+08 3.1150e+08   102%     -    7s
H    0     0                    1.718604e+08 3.1150e+08  81.3%     -    8s
H    0     0                    1.796216e+08 3.1150e+08  73.4%     -    8s
H    0     0                    1.815739e+08 3.1150e+08  71.6%     -    9s
H    0     0                    1.879791e+08 3.1150e+08  65.7%     -   12s
H    0     0                    1.887829e+08 3.1150e+08  65.0%     -   13s
H    0     0                    2.674773e+08 3.1150e+08  16.5%     -   16s
H    0     0                    2.681015e+08 3.1150e+08  16.2%     -   17s
     0     0 3.1150e+08    0 6015 2.6810e+08 3.1150e+08  16.2%     -  206s
H    0     0                    2.681025e+08 3.1150e+08  16.2%     -  224s
H    0     0                    2.681027e+08 3.1150e+08  16.2%     -  254s
H    0     0                    2.682853e+08 3.1150e+08  16.1%     -  450s
     0     0 3.1150e+08    0 5989 2.6829e+08 3.1150e+08  16.1%     -  456s
     0     0 3.1150e+08    0 6640 2.6829e+08 3.1150e+08  16.1%     -  721s
H    0     0                    2.686414e+08 3.1150e+08  16.0%     -  729s
H    0     0                    2.811267e+08 3.1150e+08  10.8%     -  733s
H    0     0                    2.840051e+08 3.1150e+08  9.68%     -  761s
H    0     0                    2.863525e+08 3.1150e+08  8.78%     -  779s
H    0     0                    2.894279e+08 3.1150e+08  7.63%     -  834s
H    0     0                    2.896539e+08 3.1150e+08  7.54%     -  841s
H    0     0                    2.898198e+08 3.1150e+08  7.48%     -  864s
H    0     0                    2.899015e+08 3.1150e+08  7.45%     -  890s
H    0     0                    2.903414e+08 3.1150e+08  7.29%     -  904s
H    0     0                    2.903873e+08 3.1150e+08  7.27%     -  935s
H    0     0                    2.903880e+08 3.1150e+08  7.27%     - 1000s
H    0     0                    2.903881e+08 3.1150e+08  7.27%     - 1000s
H    0     0                    2.903901e+08 3.1150e+08  7.27%     - 1000s
H    0     0                    2.904349e+08 3.1150e+08  7.25%     - 1000s
H    0     0                    2.904740e+08 3.1150e+08  7.24%     - 1000s
H    0     0                    2.905523e+08 3.1150e+08  7.21%     - 1010s
H    0     0                    2.905559e+08 3.1150e+08  7.21%     - 1037s
H    0     0                    2.905566e+08 3.1150e+08  7.21%     - 1072s
H    0     0                    2.905585e+08 3.1150e+08  7.21%     - 1080s
H    0     0                    2.906507e+08 3.1150e+08  7.17%     - 1080s
     0     0 3.1150e+08    0 6487 2.9065e+08 3.1150e+08  7.17%     - 1110s
     0     0 3.1150e+08    0 6822 2.9065e+08 3.1150e+08  7.17%     - 1363s
     0     0 3.1150e+08    0 6901 2.9065e+08 3.1150e+08  7.17%     - 1407s
     0     0 3.1150e+08    0 7291 2.9065e+08 3.1150e+08  7.17%     - 1690s
     0     0 3.1150e+08    0 7291 2.9065e+08 3.1150e+08  7.17%     - 1692s
     0     0 3.1150e+08    0 6794 2.9065e+08 3.1150e+08  7.17%     - 1693s
H    0     0                    2.906982e+08 3.1150e+08  7.16%     - 1840s
H    0     0                    2.906988e+08 3.1150e+08  7.15%     - 1855s
     0     2 3.1150e+08    0 6794 2.9070e+08 3.1150e+08  7.15%     - 2042s
     1     3 3.1149e+08    1 5229 2.9070e+08 3.1150e+08  7.15% 105145 2127s
     2     4 3.1150e+08    1 6837 2.9070e+08 3.1150e+08  7.15% 158712 2298s
     3     5 3.1149e+08    2 5473 2.9070e+08 3.1150e+08  7.15% 169444 2448s
     4     8 3.1149e+08    3 5549 2.9070e+08 3.1150e+08  7.15% 134226 2694s
H    5     8                    2.907025e+08 3.1150e+08  7.15% 107381 2694s
     7    16 3.1149e+08    4 5465 2.9070e+08 3.1150e+08  7.15% 117013 3233s

Cutting planes:
  MIR: 5
  Flow cover: 107
  RLT: 3081
  Relax-and-lift: 103

Explored 15 nodes (2580937 simplex iterations) in 3600.07 seconds (5993.78 work units)
Thread count was 20 (of 20 available processors)

Solution count 10: 2.90702e+08 2.90559e+08 2.90557e+08 ... 2.90387e+08

Time limit reached
Best objective 2.907024591881e+08, best bound 3.114979192400e+08, gap 7.1535%
